p cnf 50 50
-28 37 9 0
-35 7 34 0
-21 40 -14 0
24 35 33 0
-40 5 -6 0
-6 -42 -9 0
-23 36 24 0
14 -6 -11 0
-5 -10 -14 0
8 -13 50 0
-19 7 -3 0
-6 -30 4 0
6 34 -8 0
-23 43 -47 0
20 32 -21 0
33 21 18 0
18 -5 30 0
15 49 46 0
47 -14 -12 0
33 -41 -48 0
42 -12 -24 0
-22 11 13 0
-46 43 49 0
18 -8 15 0
24 -17 47 0
-27 -8 18 0
-31 -46 6 0
1 -25 49 0
39 -37 47 0
12 45 -8 0
4 -36 42 0
35 -12 -6 0
-4 17 30 0
-26 -42 -10 0
-7 13 10 0
-40 -18 -25 0
-36 -23 -16 0
28 -40 -6 0
41 -20 45 0
6 18 4 0
42 -32 35 0
-10 -21 -40 0
24 -19 7 0
-12 41 -46 0
-34 -47 -16 0
46 37 16 0
-3 -24 8 0
-48 -42 4 0
8 -4 46 0
-1 -7 -22 0
